DIMACS2
20 70 19 17 111 6 43 39 3 4 94 78 40 91 118 71 76 18 116 104 62
p edge 160 649
e 0 39 35.0
e 0 96 1.0
e 0 138 1.0
e 0 140 1.0
e 1 45 1.0
e 1 125 2.0
e 1 157 1.0
e 1 120 2.0
e 2 92 1.0
e 2 60 2.0
e 2 100 2.0
e 2 156 2.0
e 3 121 47.0
e 3 77 1.0
e 3 28 21.0
e 3 125 42.0
e 3 4 30.0
e 4 157 22.0
e 4 75 1.0
e 4 6 45.0
e 4 144 6.0
e 4 17 43.0
e 4 39 7.0
e 4 104 18.0
e 5 124 1.0
e 5 66 1.0
e 5 25 1.0
e 5 8 1.0
e 6 66 5.0
e 6 75 22.0
e 6 20 23.0
e 6 27 39.0
e 6 17 19.0
e 6 39 31.0
e 7 132 2.0
e 7 18 7.0
e 7 54 1.0
e 7 88 1.0
e 8 135 2.0
e 8 70 12.0
e 8 77 1.0
e 8 15 1.0
e 9 110 2.0
e 9 102 1.0
e 9 86 1.0
e 9 123 1.0
e 10 99 1.0
e 10 87 1.0
e 10 22 1.0
e 10 133 1.0
e 11 53 1.0
e 11 79 1.0
e 11 128 1.0
e 11 38 1.0
e 12 98 1.0
e 12 107 1.0
e 12 26 1.0
e 12 74 2.0
e 13 154 1.0
e 13 122 1.0
e 13 11 1.0
e 13 93 1.0
e 14 113 1.0
e 14 107 3.0
e 14 78 39.0
e 14 12 2.0
e 15 152 2.0
e 15 89 2.0
e 15 60 2.0
e 15 72 1.0
e 16 48 1.0
e 16 131 2.0
e 16 47 1.0
e 17 140 49.0
e 17 24 15.0
e 17 107 18.0
e 17 40 16.0
e 17 104 27.0
e 17 116 48.0
e 18 101 17.0
e 18 28 7.0
e 18 92 40.0
e 18 43 39.0
e 18 40 46.0
e 19 127 40.0
e 19 10 23.0
e 19 86 14.0
e 19 110 30.0
e 19 3 12.0
e 19 104 36.0
e 20 123 1.0
e 20 7 2.0
e 20 87 1.0
e 20 35 1.0
e 21 22 1.0
e 21 69 1.0
e 21 122 1.0
e 21 156 1.0
e 22 59 1.0
e 22 127 1.0
e 22 56 1.0
e 22 52 2.0
e 23 147 1.0
e 23 52 1.0
e 23 83 1.0
e 23 154 2.0
e 24 140 1.0
e 24 14 1.0
e 24 65 2.0
e 24 20 1.0
e 25 85 1.0
e 25 54 1.0
e 25 137 1.0
e 25 23 1.0
e 26 34 1.0
e 26 93 1.0
e 26 5 1.0
e 26 61 1.0
e 27 123 2.0
e 27 124 2.0
e 27 142 1.0
e 27 96 1.0
e 28 82 1.0
e 28 0 1.0
e 28 111 5.0
e 28 13 1.0
e 29 111 40.0
e 29 89 1.0
e 29 129 3.0
e 29 5 2.0
e 30 112 1.0
e 30 36 1.0
e 30 86 1.0
e 30 18 18.0
e 31 151 1.0
e 31 146 1.0
e 31 5 1.0
e 31 131 1.0
e 32 123 2.0
e 32 104 49.0
e 32 146 1.0
e 32 67 2.0
e 33 36 1.0
e 33 128 1.0
e 33 151 1.0
e 33 106 2.0
e 34 109 1.0
e 34 43 32.0
e 34 94 32.0
e 34 18 29.0
e 35 44 1.0
e 35 12 1.0
e 35 111 44.0
e 35 58 1.0
e 36 16 1.0
e 36 27 1.0
e 36 76 22.0
e 36 113 1.0
e 37 115 1.0
e 37 8 1.0
e 37 119 1.0
e 37 146 1.0
e 38 62 38.0
e 38 122 2.0
e 38 144 1.0
e 38 33 1.0
e 39 106 29.0
e 39 70 20.0
e 39 2 43.0
e 39 149 43.0
e 40 94 5.0
e 40 123 40.0
e 40 157 7.0
e 40 134 26.0
e 41 95 1.0
e 41 145 2.0
e 41 158 1.0
e 41 51 1.0
e 42 94 40.0
e 42 123 1.0
e 42 75 1.0
e 42 117 1.0
e 43 6 38.0
e 43 138 5.0
e 43 80 45.0
e 43 116 26.0
e 43 70 8.0
e 43 71 19.0
e 44 78 41.0
e 44 39 44.0
e 44 148 1.0
e 44 108 1.0
e 45 91 47.0
e 45 132 1.0
e 45 70 26.0
e 45 34 1.0
e 46 20 1.0
e 46 154 2.0
e 46 98 1.0
e 46 91 17.0
e 47 153 1.0
e 47 138 1.0
e 47 112 1.0
e 47 68 1.0
e 48 31 1.0
e 48 5 2.0
e 48 47 1.0
e 48 8 2.0
e 49 89 2.0
e 49 157 1.0
e 49 126 1.0
e 49 19 45.0
e 50 109 1.0
e 50 156 1.0
e 50 158 1.0
e 50 91 28.0
e 51 145 1.0
e 51 85 1.0
e 51 10 2.0
e 51 24 1.0
e 52 80 1.0
e 52 5 2.0
e 52 62 3.0
e 52 85 3.0
e 53 73 2.0
e 53 42 1.0
e 53 0 1.0
e 53 130 2.0
e 54 32 2.0
e 54 41 1.0
e 54 120 1.0
e 54 142 1.0
e 55 4 40.0
e 55 33 1.0
e 55 133 1.0
e 55 151 1.0
e 56 113 1.0
e 56 128 1.0
e 56 9 1.0
e 56 89 2.0
e 57 149 1.0
e 57 108 1.0
e 57 1 3.0
e 57 130 1.0
e 58 97 2.0
e 58 113 1.0
e 58 150 1.0
e 58 54 1.0
e 59 155 1.0
e 59 26 1.0
e 59 80 1.0
e 59 138 1.0
e 60 21 1.0
e 60 86 1.0
e 60 37 1.0
e 60 58 1.0
e 61 48 1.0
e 61 13 1.0
e 61 147 1.0
e 62 1 12.0
e 62 82 16.0
e 62 40 35.0
e 62 43 20.0
e 63 74 2.0
e 63 110 1.0
e 63 113 1.0
e 63 111 13.0
e 64 62 27.0
e 64 13 2.0
e 64 130 1.0
e 64 128 1.0
e 65 26 1.0
e 65 55 1.0
e 65 25 1.0
e 65 58 1.0
e 66 55 2.0
e 66 81 1.0
e 66 14 2.0
e 66 62 10.0
e 67 119 1.0
e 67 131 1.0
e 67 105 1.0
e 67 28 1.0
e 68 95 2.0
e 68 22 1.0
e 68 134 1.0
e 68 127 1.0
e 69 35 1.0
e 69 88 1.0
e 69 62 23.0
e 69 108 1.0
e 70 35 46.0
e 70 96 26.0
e 70 77 9.0
e 70 80 44.0
e 71 16 33.0
e 71 83 28.0
e 71 63 27.0
e 71 125 27.0
e 71 70 24.0
e 72 157 1.0
e 72 11 1.0
e 72 83 1.0
e 72 30 1.0
e 73 125 1.0
e 73 141 2.0
e 73 96 1.0
e 73 21 1.0
e 74 27 3.0
e 74 144 2.0
e 74 20 1.0
e 74 116 47.0
e 75 57 1.0
e 75 111 25.0
e 75 56 1.0
e 75 154 1.0
e 76 48 20.0
e 76 151 36.0
e 76 134 24.0
e 76 49 46.0
e 76 104 43.0
e 76 3 14.0
e 76 6 36.0
e 76 71 49.0
e 77 55 1.0
e 77 57 1.0
e 77 102 1.0
e 77 15 1.0
e 78 109 43.0
e 78 137 10.0
e 78 131 28.0
e 78 101 29.0
e 78 76 38.0
e 79 156 2.0
e 79 21 2.0
e 79 71 45.0
e 79 53 2.0
e 80 113 1.0
e 80 58 1.0
e 80 42 1.0
e 80 9 1.0
e 81 89 1.0
e 81 155 1.0
e 81 149 1.0
e 81 142 1.0
e 82 108 1.0
e 82 158 1.0
e 82 8 1.0
e 83 57 1.0
e 83 118 14.0
e 83 34 1.0
e 83 17 45.0
e 84 130 2.0
e 84 105 1.0
e 84 7 3.0
e 84 123 2.0
e 85 65 2.0
e 85 6 21.0
e 85 54 1.0
e 86 71 13.0
e 86 153 2.0
e 86 22 1.0
e 86 147 2.0
e 87 141 2.0
e 87 33 1.0
e 87 147 1.0
e 87 58 1.0
e 88 12 1.0
e 88 134 1.0
e 88 32 1.0
e 88 129 1.0
e 89 37 1.0
e 89 94 32.0
e 89 50 1.0
e 89 60 1.0
e 90 25 1.0
e 90 116 13.0
e 90 149 1.0
e 90 24 1.0
e 91 115 35.0
e 91 15 26.0
e 91 103 38.0
e 91 23 38.0
e 92 158 1.0
e 92 156 1.0
e 92 108 1.0
e 93 65 2.0
e 93 98 2.0
e 93 132 1.0
e 93 11 2.0
e 94 156 41.0
e 94 123 12.0
e 94 0 30.0
e 94 28 6.0
e 95 91 16.0
e 95 45 1.0
e 95 124 1.0
e 95 27 2.0
e 96 127 1.0
e 96 55 1.0
e 96 66 1.0
e 96 74 3.0
e 97 78 31.0
e 97 132 2.0
e 97 130 1.0
e 97 24 2.0
e 98 121 1.0
e 98 92 2.0
e 98 31 1.0
e 98 23 1.0
e 99 26 1.0
e 99 114 2.0
e 99 102 1.0
e 99 65 1.0
e 100 78 30.0
e 100 85 1.0
e 100 56 1.0
e 100 114 1.0
e 101 2 1.0
e 101 85 1.0
e 101 52 1.0
e 101 117 1.0
e 102 157 1.0
e 102 128 1.0
e 102 56 1.0
e 102 147 1.0
e 103 32 1.0
e 103 39 45.0
e 103 38 2.0
e 103 11 1.0
e 104 107 27.0
e 104 47 45.0
e 104 45 19.0
e 104 118 21.0
e 105 94 13.0
e 105 36 1.0
e 105 87 2.0
e 105 75 1.0
e 106 141 1.0
e 106 24 1.0
e 106 52 2.0
e 106 115 1.0
e 107 111 35.0
e 107 130 1.0
e 107 13 1.0
e 107 31 1.0
e 108 26 1.0
e 108 137 1.0
e 108 10 2.0
e 109 0 1.0
e 109 91 40.0
e 109 47 1.0
e 109 152 1.0
e 110 77 2.0
e 110 152 1.0
e 110 125 1.0
e 110 105 1.0
e 111 151 5.0
e 111 53 42.0
e 111 137 12.0
e 111 11 2.0
e 112 121 1.0
e 112 70 33.0
e 112 55 2.0
e 112 49 1.0
e 113 55 2.0
e 113 102 1.0
e 113 109 1.0
e 113 79 1.0
e 114 35 1.0
e 114 103 1.0
e 114 73 1.0
e 114 27 3.0
e 115 3 47.0
e 115 124 1.0
e 115 62 34.0
e 115 103 1.0
e 116 84 34.0
e 116 44 20.0
e 116 137 19.0
e 116 35 8.0
e 117 125 1.0
e 117 41 1.0
e 117 158 1.0
e 117 83 1.0
e 118 115 36.0
e 118 66 14.0
e 118 77 4.0
e 118 36 17.0
e 118 78 36.0
e 118 3 10.0
e 119 10 2.0
e 119 36 1.0
e 119 84 3.0
e 119 12 1.0
e 120 30 2.0
e 120 144 3.0
e 120 59 1.0
e 120 77 1.0
e 121 139 1.0
e 121 136 1.0
e 121 130 1.0
e 121 52 3.0
e 122 98 1.0
e 122 113 1.0
e 122 130 1.0
e 122 40 44.0
e 123 37 1.0
e 123 108 1.0
e 124 14 1.0
e 124 151 1.0
e 124 12 1.0
e 124 126 1.0
e 125 29 2.0
e 125 118 8.0
e 125 115 1.0
e 125 113 1.0
e 126 44 1.0
e 126 143 3.0
e 126 88 1.0
e 127 92 1.0
e 127 66 2.0
e 127 100 1.0
e 127 88 1.0
e 128 7 1.0
e 128 120 1.0
e 128 92 1.0
e 128 112 1.0
e 129 25 1.0
e 129 9 1.0
e 129 66 1.0
e 129 123 1.0
e 130 147 1.0
e 130 133 1.0
e 130 21 1.0
e 131 156 1.0
e 131 44 1.0
e 131 66 1.0
e 131 75 3.0
e 132 106 1.0
e 132 129 1.0
e 132 20 2.0
e 132 58 1.0
e 133 128 2.0
e 133 94 29.0
e 133 122 3.0
e 133 60 2.0
e 134 157 1.0
e 134 69 1.0
e 134 50 1.0
e 134 48 2.0
e 135 55 2.0
e 135 150 1.0
e 135 142 1.0
e 135 96 2.0
e 136 58 1.0
e 136 63 1.0
e 136 66 1.0
e 136 154 1.0
e 137 61 1.0
e 137 81 1.0
e 137 37 1.0
e 137 121 1.0
e 138 108 1.0
e 138 91 7.0
e 138 139 1.0
e 138 95 1.0
e 139 119 1.0
e 139 107 1.0
e 139 16 2.0
e 139 87 1.0
e 140 33 1.0
e 140 114 1.0
e 140 19 6.0
e 141 47 2.0
e 141 158 1.0
e 141 127 1.0
e 141 91 38.0
e 142 85 1.0
e 142 71 48.0
e 142 18 47.0
e 142 91 18.0
e 143 62 29.0
e 143 65 2.0
e 143 34 2.0
e 143 29 1.0
e 144 56 1.0
e 144 106 1.0
e 144 149 2.0
e 144 151 1.0
e 145 40 25.0
e 145 8 1.0
e 145 87 2.0
e 145 50 2.0
e 146 150 1.0
e 146 7 2.0
e 146 145 1.0
e 146 67 1.0
e 147 75 2.0
e 147 57 1.0
e 147 116 41.0
e 148 33 1.0
e 148 80 1.0
e 148 37 1.0
e 148 73 1.0
e 149 3 40.0
e 149 20 1.0
e 149 33 1.0
e 149 139 1.0
e 150 75 1.0
e 150 89 2.0
e 150 24 1.0
e 150 69 1.0
e 151 32 1.0
e 151 36 1.0
e 151 56 1.0
e 151 150 1.0
e 152 116 29.0
e 152 65 2.0
e 152 80 2.0
e 152 79 2.0
e 153 102 1.0
e 153 90 1.0
e 153 19 1.0
e 153 96 1.0
e 154 21 1.0
e 154 45 1.0
e 154 80 1.0
e 154 1 1.0
e 155 53 1.0
e 155 32 2.0
e 155 130 1.0
e 155 154 1.0
e 156 154 1.0
e 156 39 31.0
e 156 101 1.0
e 156 151 1.0
e 157 85 1.0
e 157 33 1.0
e 157 97 1.0
e 157 103 1.0
e 158 146 1.0
e 158 58 1.0
e 158 26 1.0
e 158 22 1.0
e 159 50 3.0
e 159 128 2.0
e 159 40 10.0
e 159 131 1.0
